RT is False
Default write of storage_offers_DA.csv just to have a file (but constraint should be inactive)
Reading model...
...model read.
creating competitive generators file...
...competitive generators recorded.
Loading data...
.. day-ahead data with real-time VRE data read.
Compiling instance...
...instance created.
Creating Offer Mitigation (model will solve as dispatch if TRUE)...
NOTE: storage offers will not be mitigated
...storage offer mitigation file created
Converting model to MPEC...
...converted
NOTE: initial MIP solve with only storage competitive to get feasible solution
Solving...

Welcome to IBM(R) ILOG(R) CPLEX(R) Interactive Optimizer 12.9.0.0
  with Simplex, Mixed Integer & Barrier Optimizers
5725-A06 5725-A29 5724-Y48 5724-Y49 5724-Y54 5724-Y55 5655-Y21
Copyright IBM Corp. 1988, 2019.  All Rights Reserved.

Type 'help' for a list of available commands.
Type 'help' followed by a command name for more
information on commands.

CPLEX> Logfile 'cplex.log' closed.
Logfile 'C:\Users\llavin\Desktop\test826\logs\tmpotca1j84.cplex.log' open.
CPLEX> New value for parallel optimization mode: -1
CPLEX> New value for emphasis for MIP optimization: 1
CPLEX> New value for mixed integer optimality gap tolerance: 0.01
CPLEX> New value for integrality tolerance: 1e-12
CPLEX> New value for deterministic time limit in ticks: 75000
CPLEX> Problem 'C:\Users\llavin\Desktop\test826\logs\tmphrcjxme5.pyomo.lp' read.
Read time = 0.22 sec. (13.92 ticks)
CPLEX> Problem name         : C:\Users\llavin\Desktop\test826\logs\tmphrcjxme5.pyomo.lp
Objective sense      : Maximize
Variables            :   53809  [Nneg: 1,  Box: 22004,  Free: 4464,
                                 Binary: 27340]
Objective nonzeros   :    9025
Linear constraints   :  123253  [Less: 41346,  Greater: 59096,  Equal: 22811]
  Nonzeros           :  293213
  RHS nonzeros       :   67487

Variables            : Min LB: -5000.000        Max UB: 1000000.       
Objective nonzeros   : Min   : 0.05833333       Max   : 2500.000       
Linear constraints   :
  Nonzeros           : Min   : 0.05833333       Max   : 1000000.       
  RHS nonzeros       : Min   : 0.05833333       Max   : 1000000.       
CPLEX> CPXPARAM_Parallel                                -1
CPXPARAM_Emphasis_MIP                            1
CPXPARAM_DetTimeLimit                            75000
CPXPARAM_MIP_Tolerances_MIPGap                   0.01
CPXPARAM_MIP_Tolerances_Integrality              9.9999999999999998e-13
Tried aggregator 4 times.
MIP Presolve eliminated 88683 rows and 18985 columns.
MIP Presolve added 3374 rows and 0 columns.
MIP Presolve modified 24845 coefficients.
Aggregator did 12987 substitutions.
Reduced MIP has 24957 rows, 21280 columns, and 71826 nonzeros.
Reduced MIP has 8412 binaries, 0 generals, 0 SOSs, and 0 indicators.
Presolve time = 0.31 sec. (192.32 ticks)
Probing fixed 378 vars, tightened 4057 bounds.
Probing time = 0.06 sec. (19.46 ticks)
Tried aggregator 2 times.
MIP Presolve eliminated 862 rows and 762 columns.
MIP Presolve modified 3032 coefficients.
Aggregator did 37 substitutions.
Reduced MIP has 24058 rows, 20481 columns, and 69229 nonzeros.
Reduced MIP has 8031 binaries, 0 generals, 0 SOSs, and 0 indicators.
Presolve time = 0.09 sec. (87.73 ticks)
Probing fixed 0 vars, tightened 272 bounds.
Probing time = 0.14 sec. (22.55 ticks)
Clique table members: 44465.
MIP emphasis: integer feasibility.
MIP search method: dynamic search.
Parallel mode: opportunistic, using up to 32 threads.
Root relaxation solution time = 0.41 sec. (596.84 ticks)

        Nodes                                         Cuts/
   Node  Left     Objective  IInf  Best Integer    Best Bound    ItCnt     Gap

      0     0      476.5386    81                    476.5386     4963         
      0     0      476.5386     1                 Flowcuts: 4     4964         
*     0+    0                          401.0186      476.5386            18.83%

Repeating presolve.
Tried aggregator 3 times.
MIP Presolve eliminated 10518 rows and 7727 columns.
MIP Presolve modified 26960 coefficients.
Aggregator did 160 substitutions.
Reduced MIP has 13380 rows, 12594 columns, and 41115 nonzeros.
Reduced MIP has 4589 binaries, 0 generals, 0 SOSs, and 0 indicators.
Presolve time = 0.13 sec. (71.53 ticks)
Probing fixed 752 vars, tightened 34137 bounds.
Probing time = 0.20 sec. (103.22 ticks)
Cover probing fixed 3 vars, tightened 2259 bounds.
Tried aggregator 4 times.
MIP Presolve eliminated 6851 rows and 6770 columns.
MIP Presolve modified 2398 coefficients.
Aggregator did 126 substitutions.
Reduced MIP has 6403 rows, 5698 columns, and 21593 nonzeros.
Reduced MIP has 2053 binaries, 0 generals, 0 SOSs, and 0 indicators.
Presolve time = 0.03 sec. (31.75 ticks)
Probing fixed 16 vars, tightened 2818 bounds.
Probing time = 0.03 sec. (17.30 ticks)
Tried aggregator 1 time.
MIP Presolve eliminated 53 rows and 53 columns.
MIP Presolve modified 1299 coefficients.
Reduced MIP has 6350 rows, 5645 columns, and 21430 nonzeros.
Reduced MIP has 2031 binaries, 0 generals, 0 SOSs, and 0 indicators.
Presolve time = 0.02 sec. (13.33 ticks)
Represolve time = 0.53 sec. (269.32 ticks)
Probing fixed 8 vars, tightened 1944 bounds.
Probing time = 0.03 sec. (8.26 ticks)
Clique table members: 2708.
MIP emphasis: integer feasibility.
MIP search method: dynamic search.
Parallel mode: opportunistic, using up to 32 threads.
Root relaxation solution time = 0.09 sec. (104.10 ticks)

        Nodes                                         Cuts/
   Node  Left     Objective  IInf  Best Integer    Best Bound    ItCnt     Gap

*     0+    0                          401.0186      476.5386            18.83%
      0     0      476.5386    14      401.0186      476.5386     6643   18.83%
      0     0      476.5386     2      401.0186       Cuts: 4     6647   18.83%
      0     0      476.5386     3      401.0186       Cuts: 4     6651   18.83%
      0     0      476.5386     3      401.0186      Cuts: 14     6655   18.83%
      0     0        cutoff            401.0186      401.0186     6655    0.00%
Elapsed time = 3.81 sec. (2541.74 ticks, tree = 0.01 MB, solutions = 1)

Implied bound cuts applied:  4
Mixed integer rounding cuts applied:  4
Gomory fractional cuts applied:  1

Root node processing (before b&c):
  Real time             =    3.83 sec. (2542.67 ticks)
Parallel b&c, 32 threads:
  Real time             =    0.00 sec. (0.00 ticks)
  Sync time (average)   =    0.00 sec.
  Wait time (average)   =    0.00 sec.
                          ------------
Total (root+branch&cut) =    3.83 sec. (2542.67 ticks)

Solution pool: 1 solution saved.

MIP - Integer optimal solution:  Objective =  4.0101858634e+02
Solution time =    3.84 sec.  Iterations = 6655  Nodes = 0
Deterministic time = 2542.83 ticks  (661.50 ticks/sec)

CPLEX> Incumbent solution written to file 'C:\Users\llavin\Desktop\test826\logs\tmpsgo0t3g8.cplex.sol'.
CPLEX> NOTE: no warmstart specified for MIP iteration, default behavior is true
NOTE: resolving with all competitive generators using storage-only solution to warmstart
Solving...

Welcome to IBM(R) ILOG(R) CPLEX(R) Interactive Optimizer 12.9.0.0
  with Simplex, Mixed Integer & Barrier Optimizers
5725-A06 5725-A29 5724-Y48 5724-Y49 5724-Y54 5724-Y55 5655-Y21
Copyright IBM Corp. 1988, 2019.  All Rights Reserved.

Type 'help' for a list of available commands.
Type 'help' followed by a command name for more
information on commands.

CPLEX> Logfile 'cplex.log' closed.
Logfile 'C:\Users\llavin\Desktop\test826\logs\tmp50y2bsu3.cplex.log' open.
CPLEX> New value for parallel optimization mode: -1
CPLEX> New value for emphasis for MIP optimization: 1
CPLEX> New value for mixed integer optimality gap tolerance: 0.01
CPLEX> New value for integrality tolerance: 1e-12
CPLEX> New value for deterministic time limit in ticks: 75000
CPLEX> Problem 'C:\Users\llavin\Desktop\test826\logs\tmpau1y5idw.pyomo.lp' read.
Read time = 0.25 sec. (13.94 ticks)
CPLEX> MIP start file 'C:\Users\llavin\Desktop\test826\logs\tmp0amtoer6.cplex.mst' read.
CPLEX> Problem name         : C:\Users\llavin\Desktop\test826\logs\tmpau1y5idw.pyomo.lp
Objective sense      : Maximize
Variables            :   54529  [Nneg: 1,  Box: 22724,  Free: 4464,
                                 Binary: 27340]
Objective nonzeros   :    9721
Linear constraints   :  123253  [Less: 41346,  Greater: 59096,  Equal: 22811]
  Nonzeros           :  293213
  RHS nonzeros       :   67487

Variables            : Min LB: -5000.000        Max UB: 1000000.       
Objective nonzeros   : Min   : 0.05833333       Max   : 2500.000       
Linear constraints   :
  Nonzeros           : Min   : 0.05833333       Max   : 1000000.       
  RHS nonzeros       : Min   : 0.05833333       Max   : 1000000.       
CPLEX> CPXPARAM_Parallel                                -1
CPXPARAM_Emphasis_MIP                            1
CPXPARAM_DetTimeLimit                            75000
CPXPARAM_MIP_Tolerances_MIPGap                   0.01
CPXPARAM_MIP_Tolerances_Integrality              9.9999999999999998e-13
Warning:  No solution found from 1 MIP starts.
Retaining values of one MIP start for possible repair.
Tried aggregator 4 times.
MIP Presolve eliminated 88683 rows and 19705 columns.
MIP Presolve added 3374 rows and 0 columns.
MIP Presolve modified 24845 coefficients.
Aggregator did 12987 substitutions.
Reduced MIP has 24957 rows, 21280 columns, and 71826 nonzeros.
Reduced MIP has 8412 binaries, 0 generals, 0 SOSs, and 0 indicators.
Presolve time = 0.31 sec. (192.73 ticks)
Probing fixed 378 vars, tightened 4057 bounds.
Probing time = 0.06 sec. (19.46 ticks)
Tried aggregator 2 times.
MIP Presolve eliminated 862 rows and 762 columns.
MIP Presolve modified 3032 coefficients.
Aggregator did 37 substitutions.
Reduced MIP has 24058 rows, 20481 columns, and 69229 nonzeros.
Reduced MIP has 8031 binaries, 0 generals, 0 SOSs, and 0 indicators.
Presolve time = 0.11 sec. (87.73 ticks)
Probing fixed 0 vars, tightened 272 bounds.
Probing time = 0.14 sec. (22.55 ticks)
Clique table members: 44465.
MIP emphasis: integer feasibility.
MIP search method: dynamic search.
Parallel mode: opportunistic, using up to 32 threads.
Root relaxation solution time = 0.47 sec. (633.95 ticks)

        Nodes                                         Cuts/
   Node  Left     Objective  IInf  Best Integer    Best Bound    ItCnt     Gap

      0     0   151135.3419   325                 151135.3419     6039         
      0     0   147848.6840   183                   Cuts: 205     6286         
      0     0   147388.5097   187                    Cuts: 44     6342         
      0     0   147304.0949   187                    Cuts: 29     6359         
Repair heuristic found nothing.
      0     9    infeasible                          Cuts: 11     6595         
Elapsed time = 3.84 sec. (1881.92 ticks, tree = 0.02 MB, solutions = 0)
    561   433    81961.0992   146                 126007.9388    16069         
   1115   740    95183.8450   107                 126007.9388    20565         
   1749  1200    infeasible                       126007.9388    28160         
   2411  1501    infeasible                       126007.9388    37255         
   3041  2098   -40353.8198    34                 126007.9388    50932         
   3591  2166     4940.0610    34                 126007.9388    55813         
   4284  2478    infeasible                       126007.9388    72062         
   4942  2957  -404885.2444    70                 126007.9388    88220         
   5615  3417    15041.9639    64                 126007.9388   101991         
   8201  5196    24661.2642    94                 126007.9388   154497         
Elapsed time = 21.09 sec. (4984.10 ticks, tree = 84.60 MB, solutions = 0)
  10752  6287    infeasible                       126007.9388   188996         
  13162  7535  -186468.7811   116                 126007.9388   228837         
  15411  7418    10090.7456    95                 126007.9388   225495         
  17710  8470  -120876.2517    79                 126007.9388   265494         
  19907 10741  -197558.1035   114                 126007.9388   374754         
  22130  9958    infeasible                       126007.9388   333956         
  24397  9929    20293.3563    86                 126007.9388   329176         
  26715  9217    20902.9840    41                 126007.9388   301344         
  28992 12223    -1620.2061   103                 126007.9388   460818         
  31253 10263    16606.6530    40                 126007.9388   348230         
Elapsed time = 73.36 sec. (14525.24 ticks, tree = 125.74 MB, solutions = 0)
  33697 10080    infeasible                       126007.9388   337913         
* 34266 10776      integral     0     9917.1640   126007.9388   388834     --- 
  36474 12610     9996.8672    35     9917.1640   126007.9388   477596     --- 
  38130 14980  -194059.5597    65     9917.1640   126007.9388   591960     --- 
  39604 15396   -27539.1129    77     9917.1640   126007.9388   607133     --- 
* 40757 11639      integral     0     9917.1640   126007.9388   438429     --- 
  42049 13726   -24048.5310    73     9917.1640   126007.9388   532885     --- 
  43200 14835     9861.8500    30     9917.1640   126007.9388   588415     --- 
  44411 13270    -1354.3661    59     9917.1640   126007.9388   513994     --- 
  45559 12728     4129.3949    59     9917.1640   126007.9388   483061     --- 
Elapsed time = 95.20 sec. (23178.89 ticks, tree = 144.42 MB, solutions = 4)
  46658 12046   -12653.2007    29     9917.1640   126007.9388   434605     --- 
  47745 15382   -66150.2493    70     9917.1640   126007.9388   608899     --- 
  48749 12756     1580.7491    86     9917.1640   126007.9388   478030     --- 
  49688 14628    -7926.7260    44     9917.1640   126007.9388   577761     --- 
  50662 15146    infeasible           9917.1640   126007.9388   593488     --- 
  51395 14398     3179.3097    38     9917.1640   126007.9388   571807     --- 
  52020 14438   -91561.3392    96     9917.1640   126007.9388   574596     --- 
  52689 15260    infeasible           9917.1640   126007.9388   597064     --- 
  53435 14042   -31199.1182    46     9917.1640   126007.9388   575592     --- 
  54147 15309    infeasible           9917.1640   126007.9388   598715     --- 
Elapsed time = 107.84 sec. (32734.83 ticks, tree = 165.24 MB, solutions = 4)
  54817 15099    infeasible           9917.1640   126007.9388   605266     --- 
  55301 15401     7091.9624    28     9917.1640   126007.9388   600484     --- 
  55586 14223     9917.1640    14     9917.1640   126007.9388   558857     --- 
  55590 15152     9917.1640    14     9917.1640   126007.9388   598793     --- 
  55594 15152     9917.1640    14     9917.1640   126007.9388   598795     --- 
  55598 15152     9917.1640    14     9917.1640   126007.9388   598797     --- 
  55653  6969        cutoff           9917.1640    39877.6334  1526657  302.11%
  57305   886    10086.9440    38     9917.1640    38566.2342  1540999  288.88%
  59887   865    13314.9509    37     9917.1640    38247.4482  1550361  285.67%
  63903  1192        cutoff           9917.1640    38175.6254  1564610  284.94%
Elapsed time = 128.98 sec. (46004.87 ticks, tree = 6.04 MB, solutions = 4)
  68039  1818    infeasible           9917.1640    38175.6254  1589386  284.94%
  72162  2320    11836.2506    17     9917.1640    38175.6254  1606025  284.94%
  76201  3121    15755.0488    20     9917.1640    38175.6254  1642617  284.94%
  78454  3672        cutoff           9917.1640    38175.6254  1658465  284.94%
  78661  4252    11334.5394    38     9917.1640    38175.6254  1673576  284.94%
  80263  4242    16649.4611    18     9917.1640    38175.6254  1676215  284.94%
  83389  4227    15063.0415    24     9917.1640    38175.6254  1678600  284.94%
  87321  4663    11749.2985    23     9917.1640    38175.6254  1708526  284.94%
  91530  5301    infeasible           9917.1640    38088.0434  1746137  284.06%
  95580  4806        cutoff           9917.1640    38088.0434  1718647  284.06%
Elapsed time = 174.22 sec. (55566.50 ticks, tree = 30.84 MB, solutions = 4)
  99398  5552    13536.8656    31     9917.1640    38088.0434  1762964  284.06%
 102368  5424    12066.9278    30     9917.1640    38088.0434  1754972  284.06%
 103807  5955        cutoff           9917.1640    38088.0434  1777593  284.06%
 104082  7154    infeasible           9917.1640    38088.0434  1830401  284.06%
 104607  7540    14616.6612    27     9917.1640    38088.0434  1847470  284.06%
 106480  7386    11898.3197    16     9917.1640    38088.0434  1836604  284.06%
 109547  7373    14162.5019    23     9917.1640    38088.0434  1838284  284.06%
 112881  7560    10295.5152    23     9917.1640    38088.0434  1842531  284.06%
 116257  7568    14133.7414    36     9917.1640    38088.0434  1846442  284.06%
 118976  8230        cutoff           9917.1640    38088.0434  1878558  284.06%
Elapsed time = 206.75 sec. (65138.73 ticks, tree = 62.38 MB, solutions = 4)
 121454  9511    infeasible           9917.1640    33172.8310  1932319  234.50%
 124081  9510    14214.7030    34     9917.1640    33172.8310  1933816  234.50%
 127061  9530        cutoff           9917.1640    32720.6478  1934436  229.94%
 130640 10071    infeasible           9917.1640    32720.6478  1988890  229.94%
 134663 10033    12075.3751    25     9917.1640    32720.6478  1977416  229.94%
 138798 10124    12693.2460    44     9917.1640    32720.6478  2000861  229.94%
 142718 10116    10535.3579    40     9917.1640    32720.6478  1986618  229.94%
 145503 10694    13060.3184    28     9917.1640    32720.6478  2035095  229.94%
 147788 10136    11697.4800    28     9917.1640    32720.6478  2000823  229.94%
 149256 10877    infeasible           9917.1640    32720.6478  2047362  229.94%
Elapsed time = 239.64 sec. (74679.86 ticks, tree = 73.89 MB, solutions = 4)

Cover cuts applied:  22
Implied bound cuts applied:  54
Flow cuts applied:  115
Mixed integer rounding cuts applied:  12
Lift and project cuts applied:  1
Gomory fractional cuts applied:  5

Root node processing (before b&c):
  Real time             =    2.72 sec. (1874.65 ticks)
Parallel b&c, 32 threads:
  Real time             =  237.26 sec. (73154.62 ticks)
  Sync time (average)   =    1.28 sec.
  Wait time (average)   =    0.17 sec.
                          ------------
Total (root+branch&cut) =  239.98 sec. (75029.27 ticks)

Solution pool: 4 solutions saved.

MIP - Deterministic time limit exceeded, integer feasible:  Objective =  9.9171639624e+03
Current MIP best bound =  3.0813647972e+04 (gap = 20896.5, 210.71%)
Solution time =  240.00 sec.  Iterations = 2126474  Nodes = 149461 (11542)
Deterministic time = 75029.43 ticks  (312.62 ticks/sec)

CPLEX> Incumbent solution written to file 'C:\Users\llavin\Desktop\test826\logs\tmpiukkw4rn.cplex.sol'.
CPLEX> Exporting results... 
